p cnf 63 192
a 17 59 0
e 1 2 3 4 5 6 7 8 9 10 11 12 13 14 15 16 18 19 20 21 22 23 24 25 26 27 28 29 30 31 32 33 34 35 36 37 38 39 40 41 42 43 44 45 46 47 48 49 50 51 52 53 54 55 56 57 58 60 61 62 63 0
-3 -1 0
-3 -2 0
1 2 3 0
1 -3 -4 0
-1 3 -4 0
1 3 4 0
-1 -3 4 0
6 -4 0
6 -5 0
4 5 -6 0
7 6 0
7 3 0
-6 -3 -7 0
8 2 0
8 2 0
-2 -8 0
10 -8 0
10 9 0
8 -9 -10 0
11 -7 0
11 -10 0
7 10 -11 0
14 12 0
14 -13 0
-12 13 -14 0
15 2 -16 0
-15 -2 -16 0
15 -2 16 0
-15 2 16 0
-17 14 0
-17 16 0
-14 -16 17 0
-18 3 0
-18 -17 0
-3 17 18 0
19 18 0
19 17 0
-18 -17 -19 0
-6 19 -20 0
6 -19 -20 0
-6 -19 20 0
6 19 20 0
-21 2 0
-21 2 0
-2 21 0
22 -13 0
22 21 0
13 -21 -22 0
-20 -22 -23 0
20 22 -23 0
-20 22 23 0
20 -22 23 0
-11 -23 -24 0
11 23 -24 0
-11 23 24 0
11 -23 24 0
25 5 0
25 1 0
-5 -1 -25 0
26 25 0
26 25 0
-25 -26 0
-28 -27 0
-28 -27 0
27 28 0
-29 -19 0
-29 -28 0
19 28 29 0
-30 -25 0
-30 5 0
25 -5 30 0
-31 -29 0
-31 -30 0
29 30 31 0
32 26 0
32 -31 0
-26 31 -32 0
33 28 0
33 8 0
-28 -8 -33 0
-34 3 0
-34 33 0
-3 -33 34 0
35 29 0
35 -18 0
-29 18 -35 0
-37 36 0
-37 -8 0
-36 8 37 0
-35 -37 -38 0
35 37 -38 0
-35 37 38 0
35 -37 38 0
-39 -13 0
-39 27 0
13 -27 39 0
-40 39 0
-40 16 0
-39 -16 40 0
-41 38 0
-41 -40 0
-38 40 41 0
-42 34 0
-42 -41 0
-34 41 42 0
-43 32 0
-43 -42 0
-32 42 43 0
-27 -5 -44 0
27 5 -44 0
-27 5 44 0
27 -5 44 0
-45 -12 0
-45 -2 0
12 2 45 0
-46 -44 0
-46 -45 0
44 45 46 0
-47 -46 0
-47 -17 0
46 17 47 0
-46 -48 -49 0
46 48 -49 0
-46 48 49 0
46 -48 49 0
49 15 -50 0
-49 -15 -50 0
49 -15 50 0
-49 15 50 0
-14 -50 -51 0
14 50 -51 0
-14 50 51 0
14 -50 51 0
47 -51 -52 0
-47 51 -52 0
47 51 52 0
-47 -51 52 0
53 -43 0
53 -52 0
43 52 -53 0
-21 25 -54 0
21 -25 -54 0
-21 -25 54 0
21 25 54 0
-55 -16 0
-55 45 0
16 -45 55 0
56 54 0
56 55 0
-54 -55 -56 0
-57 -33 0
-57 29 0
33 -29 57 0
58 -56 0
58 -57 0
56 57 -58 0
-4 -2 -59 0
4 2 -59 0
-4 2 59 0
4 -2 59 0
59 -21 -60 0
-59 21 -60 0
59 21 60 0
-59 -21 60 0
61 -58 0
61 -60 0
58 60 -61 0
-62 -53 0
-62 -61 0
53 61 62 0
-24 -62 -63 0
24 62 -63 0
-24 62 63 0
24 -62 63 0
30 7 -15 -3 -60 26 -40 0
-26 -41 34 52 31 -39 -11 -40 0
6 20 37 30 -27 35 0
1 -58 -22 0
35 -63 -37 -27 38 57 0
2 55 25 -21 0
26 57 -30 -32 -39 -50 0
-15 -21 5 0
-12 16 -18 22 33 -27 0
-62 40 59 13 0
-59 -18 27 -20 35 16 0
-42 -27 -40 -13 -15 62 0
-45 50 -33 23 0
20 -27 30 23 -49 0
15 -18 35 -27 0
37 32 -42 -35 -43 0
19 -30 11 6 -25 -9 -2 -42 0
63 0
